<?xml version = "1.0" encoding="UTF-8" standalone="yes"?>
<CPLEXSolution version="1.2">
 <header
   problemName="IloCplex"
   solutionName="p0"
   solutionIndex="-1"
   objectiveValue="455424"
   solutionTypeValue="3"
   solutionTypeString="primal"
   solutionStatusValue="127"
   solutionStatusString="integer feasible solution"
   solutionMethodString="mip"
   primalFeasible="0"
   dualFeasible="0"
   writeLevel="3"/>
 <quality
   epInt="1.0000000000000001e-05"
   epRHS="9.9999999999999995e-07"
   maxIntInfeas="0"
   maxPrimalInfeas="0"
   maxX="3558"
   maxSlack="6213"/>
 <variables>
  <variable index="0" value="3558"/>
  <variable index="1" value="3558"/>
  <variable index="2" value="3558"/>
  <variable index="3" value="3558"/>
  <variable index="4" value="3558"/>
  <variable index="5" value="3558"/>
  <variable index="105" value="1"/>
  <variable index="148" value="1"/>
  <variable index="260" value="1"/>
  <variable index="339" value="1"/>
  <variable index="486" value="1"/>
  <variable index="564" value="1"/>
  <variable index="669" value="1"/>
  <variable index="734" value="1"/>
  <variable index="837" value="1"/>
  <variable index="1001" value="1"/>
  <variable index="1112" value="1"/>
  <variable index="1192" value="1"/>
  <variable index="1274" value="1"/>
  <variable index="1355" value="1"/>
  <variable index="1440" value="1"/>
  <variable index="1536" value="1"/>
  <variable index="1714" value="1"/>
  <variable index="1796" value="1"/>
  <variable index="1880" value="1"/>
  <variable index="1922" value="1"/>
  <variable index="2093" value="1"/>
  <variable index="2130" value="1"/>
  <variable index="2223" value="1"/>
  <variable index="2403" value="1"/>
  <variable index="2418" value="1"/>
  <variable index="2529" value="1"/>
  <variable index="2677" value="1"/>
  <variable index="2799" value="1"/>
  <variable index="2868" value="1"/>
  <variable index="2973" value="1"/>
  <variable index="3071" value="1"/>
  <variable index="3204" value="1"/>
  <variable index="3287" value="1"/>
  <variable index="3316" value="1"/>
  <variable index="3457" value="1"/>
  <variable index="3567" value="1"/>
  <variable index="3684" value="1"/>
  <variable index="3778" value="1"/>
  <variable index="3906" value="1"/>
  <variable index="3985" value="1"/>
  <variable index="4028" value="1"/>
  <variable index="4209" value="1"/>
  <variable index="4249" value="1"/>
  <variable index="4376" value="1"/>
  <variable index="4510" value="1"/>
  <variable index="4517" value="1"/>
  <variable index="4672" value="1"/>
  <variable index="4775" value="1"/>
  <variable index="4866" value="1"/>
  <variable index="4920" value="1"/>
  <variable index="5088" value="1"/>
  <variable index="5163" value="1"/>
  <variable index="5250" value="1"/>
  <variable index="5343" value="1"/>
  <variable index="5421" value="1"/>
  <variable index="5594" value="1"/>
  <variable index="5645" value="1"/>
  <variable index="5761" value="1"/>
  <variable index="5844" value="1"/>
  <variable index="5927" value="1"/>
  <variable index="6062" value="1"/>
  <variable index="6158" value="1"/>
  <variable index="6241" value="1"/>
  <variable index="6352" value="1"/>
  <variable index="6490" value="1"/>
  <variable index="6533" value="1"/>
  <variable index="6682" value="1"/>
  <variable index="6781" value="1"/>
  <variable index="6889" value="1"/>
  <variable index="6951" value="1"/>
  <variable index="7054" value="1"/>
  <variable index="7119" value="1"/>
  <variable index="7247" value="1"/>
  <variable index="7365" value="1"/>
  <variable index="7483" value="1"/>
  <variable index="7579" value="1"/>
  <variable index="7707" value="1"/>
  <variable index="7726" value="1"/>
  <variable index="7835" value="1"/>
  <variable index="7970" value="1"/>
  <variable index="8098" value="1"/>
  <variable index="8132" value="1"/>
  <variable index="8302" value="1"/>
  <variable index="8395" value="1"/>
  <variable index="8442" value="1"/>
  <variable index="8613" value="1"/>
  <variable index="8624" value="1"/>
  <variable index="8797" value="1"/>
  <variable index="8838" value="1"/>
  <variable index="8946" value="1"/>
  <variable index="9015" value="1"/>
  <variable index="9153" value="1"/>
  <variable index="9291" value="1"/>
  <variable index="9411" value="1"/>
  <variable index="9456" value="1"/>
  <variable index="9559" value="1"/>
  <variable index="9708" value="1"/>
  <variable index="9725" value="1"/>
  <variable index="9900" value="1"/>
  <variable index="9931" value="1"/>
  <variable index="10015" value="1"/>
  <variable index="10016" value="1"/>
  <variable index="10017" value="1"/>
  <variable index="10018" value="1"/>
  <variable index="10019" value="1"/>
 </variables>
</CPLEXSolution>
